============================[ Problem Statistics ]=============================|                                                                             ||  Number of variables:          4242                                         ||  Number of clauses:            9948                                         ||  Parse time:                   0.36 s                                       ||                                                                             |============================[ Search Statistics ]==============================| Conflicts |          ORIGINAL         |          LEARNT          | Progress ||           |    Vars  Clauses Literals |    Limit  Clauses Lit/Cl |          |===============================================================================|       100 |    1591     6153   536824 |     2256      100     53 | 62.501 % |===============================================================================restarts              : 2conflicts             : 198            (369 /sec)decisions             : 370            (0.00 % random) (690 /sec)propagations          : 10062          (18772 /sec)conflict literals     : 13908          (95.16 % deleted)CPU time              : 0.536 sSATISFIABLE